(set-logic ALL)
(declare-fun var0 () String)
(assert (str.in_re var0 (re.++ (re.+ (re.* (str.to_re "00"))) (re.++ (re.union (re.* (str.to_re "11")) (re.* (str.to_re "2"))) (re.++ (re.union (re.+ (str.to_re "33")) (re.+ (str.to_re "444"))) (re.++ (re.union (re.+ (str.to_re "55")) (re.+ (str.to_re "666"))) (re.++ (re.* (re.* (str.to_re "777"))) (re.++ (re.* (re.union (str.to_re "8") (str.to_re "999"))) (re.++ (re.union (re.+ (str.to_re "aa")) (re.+ (str.to_re "bb"))) (re.++ (re.union (re.* (str.to_re "c")) (re.* (str.to_re "d"))) (re.++ (re.union (re.* (str.to_re "ee")) (re.* (str.to_re "f"))) (re.++ (re.+ (re.+ (str.to_re "ggg"))) (re.++ (re.* (re.union (str.to_re "hhh") (str.to_re "iii"))) (re.++ (re.* (re.union (str.to_re "j") (str.to_re "k"))) (re.++ (re.* (re.* (str.to_re "lll"))) (re.++ (re.* (re.+ (str.to_re "m"))) (re.++ (re.union (re.union (str.to_re "n") (str.to_re "ooo")) (re.union (str.to_re "p") (str.to_re "qq"))) (re.++ (re.* (re.union (str.to_re "rrr") (str.to_re "ss"))) (re.++ (re.+ (re.union (str.to_re "t") (str.to_re "uu"))) (re.++ (re.union (re.union (str.to_re "vv") (str.to_re "www")) (re.union (str.to_re "x") (str.to_re "y"))) (re.++ (re.union (re.union (str.to_re "z") (str.to_re "AAA")) (re.union (str.to_re "BBB") (str.to_re "CCC"))) (re.++ (re.union (re.+ (str.to_re "DDD")) (re.+ (str.to_re "EEE"))) (re.++ (re.union (re.union (str.to_re "FFF") (str.to_re "G")) (re.union (str.to_re "H") (str.to_re "III"))) (re.++ (re.+ (re.+ (str.to_re "JJ"))) (re.++ (re.* (re.union (str.to_re "KK") (str.to_re "LL"))) (re.++ (re.* (re.+ (str.to_re "MM"))) (re.++ (re.union (re.union (str.to_re "NNN") (str.to_re "OO")) (re.union (str.to_re "PPP") (str.to_re "QQ"))) (re.++ (re.+ (re.+ (str.to_re "R"))) (re.++ (re.union (re.* (str.to_re "SSS")) (re.* (str.to_re "TT"))) (re.++ (re.* (re.+ (str.to_re "U"))) (re.++ (re.+ (re.union (str.to_re "V") (str.to_re "WWW"))) (re.++ (re.* (re.union (str.to_re "X") (str.to_re "YYY"))) (re.++ (re.+ (re.+ (str.to_re "Z"))) (re.++ (re.union (re.union (str.to_re "!!") (str.to_re """")) (re.union (str.to_re "##") (str.to_re "$$$"))) (re.++ (re.union (re.+ (str.to_re "%%")) (re.+ (str.to_re "&&&"))) (re.++ (re.union (re.union (str.to_re "'''") (str.to_re "((")) (re.union (str.to_re "))") (str.to_re "**"))) (re.++ (re.* (re.+ (str.to_re "+"))) (re.+ (re.union (str.to_re ",,") (str.to_re "-"))))))))))))))))))))))))))))))))))))))))
(check-sat)